Ar
5.641 
1 0 0
0 1 0
0 0 1
Ar
4
Direct
0 0 0
0.5 0.5 0
0.5 0 0.5 
0 0.5 0.5 
