EA866  23.456  5.136  4.979 90.00 84.97 90.00 Sym.group:   14
1.0
23.455793     0.000000     0.000000
0.000000     5.135977     0.000000
0.436660     0.000000     4.959487
C   H   N   O
28  28   4   4
Direct
0.108000     0.482000     0.571000
0.157000     0.491000     0.386000
0.105000     0.658000     0.790000
0.062000     0.291000     0.520000
0.201000     0.671000     0.419000
0.148000     0.838000     0.821000
0.197000     0.845000     0.635000
0.392000    -0.018000     0.929000
0.343000    -0.009000     1.114000
0.395000     0.158000     0.710000
0.438000    -0.209000     0.980000
0.299000     0.171000     1.081000
0.352000     0.338000     0.679000
0.303000     0.345000     0.865000
0.892000     0.518000     0.429000
0.843000     0.509000     0.614000
0.895000     0.342000     0.210000
0.938000     0.709000     0.480000
0.799000     0.329000     0.581000
0.852000     0.162000     0.179000
0.803000     0.155000     0.365000
0.608000     1.018000     0.071000
0.657000     1.009000    -0.114000
0.605000     0.842000     0.290000
0.562000     1.209000     0.020000
0.701000     0.829000    -0.081000
0.648000     0.662000     0.321000
0.697000     0.655000     0.135000
0.162000     0.361000     0.215000
0.067000     0.659000     0.934000
0.238000     0.676000     0.275000
0.144000     0.973000     0.988000
-0.003000     0.079000     0.708000
0.037000     0.254000     0.922000
0.230000     0.984000     0.659000
0.338000    -0.139000     1.285000
0.433000     0.159000     0.566000
0.262000     0.176000     1.225000
0.356000     0.473000     0.512000
0.503000    -0.421000     0.792000
0.463000    -0.246000     0.578000
0.270000     0.484000     0.841000
0.838000     0.639000     0.785000
0.933000     0.341000     0.066000
0.762000     0.324000     0.725000
0.856000     0.027000     0.012000
1.003000     0.921000     0.292000
0.963000     0.746000     0.078000
0.770000     0.016000     0.341000
0.662000     1.139000    -0.285000
0.567000     0.841000     0.434000
0.738000     0.824000    -0.225000
0.644000     0.527000     0.488000
0.497000     1.421000     0.208000
0.537000     1.246000     0.422000
0.730000     0.516000     0.159000
0.025000     0.220000     0.736000
0.475000    -0.280000     0.764000
0.975000     0.780000     0.264000
0.525000     1.280000     0.236000
0.057000     0.197000     0.295000
0.443000    -0.303000     1.205000
0.943000     0.803000     0.705000
0.557000     1.303000    -0.205000
