A
2.860000
1 0 0
0 1 0
0 0 1
Na
2
direct
0.000000 0.000000 0.000000
0.500000 0.500000 0.500000 
